============================[ Problem Statistics ]=============================|                                                                             ||  Number of variables:          4242                                         ||  Number of clauses:            9921                                         ||  Parse time:                   0.33 s                                       ||                                                                             |============================[ Search Statistics ]==============================| Conflicts |          ORIGINAL         |          LEARNT          | Progress ||           |    Vars  Clauses Literals |    Limit  Clauses Lit/Cl |          |===============================================================================|       100 |    1591     6126   493867 |     2246      100     53 | 62.501 % |===============================================================================restarts              : 2conflicts             : 184            (369 /sec)decisions             : 355            (0.00 % random) (711 /sec)propagations          : 10034          (20108 /sec)conflict literals     : 12677          (95.22 % deleted)CPU time              : 0.499 sSATISFIABLE